c File: data_files/evolved_graphs/g6852.col
c
c Auto generated graph
c
p edge 100 1145
e 1 2
e 1 4
e 1 7
e 1 10
e 1 14
e 1 20
e 1 31
e 1 33
e 1 36
e 1 38
e 1 40
e 1 42
e 1 45
e 1 54
e 1 57
e 1 58
e 1 60
e 1 63
e 1 67
e 1 69
e 1 70
e 1 90
e 1 97
e 2 10
e 2 13
e 2 16
e 2 17
e 2 23
e 2 29
e 2 33
e 2 41
e 2 45
e 2 49
e 2 51
e 2 53
e 2 54
e 2 56
e 2 64
e 2 66
e 2 70
e 2 71
e 2 74
e 2 75
e 2 82
e 2 93
e 2 97
e 2 98
e 2 100
e 3 9
e 3 11
e 3 15
e 3 18
e 3 19
e 3 24
e 3 29
e 3 31
e 3 36
e 3 44
e 3 46
e 3 51
e 3 55
e 3 57
e 3 59
e 3 69
e 3 70
e 3 71
e 3 78
e 3 87
e 3 90
e 3 93
e 3 95
e 3 100
e 4 11
e 4 12
e 4 16
e 4 17
e 4 18
e 4 23
e 4 24
e 4 28
e 4 35
e 4 57
e 4 67
e 4 72
e 4 77
e 4 79
e 4 84
e 4 85
e 4 87
e 4 94
e 4 97
e 5 16
e 5 21
e 5 26
e 5 29
e 5 30
e 5 35
e 5 38
e 5 40
e 5 42
e 5 52
e 5 53
e 5 55
e 5 58
e 5 60
e 5 62
e 5 70
e 5 71
e 5 73
e 5 75
e 5 88
e 5 90
e 5 92
e 5 96
e 5 99
e 6 9
e 6 12
e 6 15
e 6 16
e 6 19
e 6 22
e 6 26
e 6 30
e 6 33
e 6 37
e 6 40
e 6 41
e 6 44
e 6 45
e 6 47
e 6 48
e 6 49
e 6 54
e 6 59
e 6 61
e 6 67
e 6 71
e 6 79
e 6 81
e 6 90
e 6 96
e 6 98
e 7 8
e 7 16
e 7 18
e 7 24
e 7 30
e 7 32
e 7 34
e 7 35
e 7 41
e 7 45
e 7 46
e 7 48
e 7 54
e 7 57
e 7 58
e 7 62
e 7 68
e 7 73
e 7 85
e 7 97
e 8 9
e 8 11
e 8 12
e 8 15
e 8 25
e 8 28
e 8 29
e 8 30
e 8 31
e 8 33
e 8 50
e 8 64
e 8 66
e 8 73
e 8 74
e 8 75
e 8 77
e 8 84
e 9 11
e 9 14
e 9 16
e 9 18
e 9 21
e 9 22
e 9 28
e 9 33
e 9 34
e 9 36
e 9 37
e 9 44
e 9 48
e 9 50
e 9 58
e 9 63
e 9 65
e 9 77
e 9 87
e 9 97
e 10 11
e 10 14
e 10 15
e 10 18
e 10 21
e 10 34
e 10 46
e 10 52
e 10 53
e 10 61
e 10 62
e 10 63
e 10 66
e 10 69
e 10 82
e 10 86
e 10 96
e 10 99
e 11 21
e 11 22
e 11 23
e 11 26
e 11 30
e 11 37
e 11 40
e 11 45
e 11 46
e 11 56
e 11 62
e 11 65
e 11 66
e 11 67
e 11 70
e 11 73
e 11 81
e 11 83
e 11 92
e 11 94
e 11 98
e 11 100
e 12 13
e 12 14
e 12 20
e 12 23
e 12 26
e 12 30
e 12 34
e 12 38
e 12 41
e 12 44
e 12 48
e 12 52
e 12 66
e 12 68
e 12 73
e 12 77
e 12 82
e 12 85
e 12 87
e 12 98
e 12 99
e 12 100
e 13 14
e 13 16
e 13 22
e 13 37
e 13 47
e 13 48
e 13 55
e 13 57
e 13 58
e 13 62
e 13 65
e 13 66
e 13 68
e 13 69
e 13 70
e 13 72
e 13 74
e 13 75
e 13 78
e 13 80
e 13 87
e 13 88
e 13 92
e 13 98
e 13 100
e 14 19
e 14 20
e 14 21
e 14 36
e 14 38
e 14 42
e 14 53
e 14 59
e 14 67
e 14 69
e 14 75
e 14 76
e 14 77
e 14 87
e 14 88
e 14 89
e 14 92
e 14 95
e 15 16
e 15 19
e 15 29
e 15 33
e 15 39
e 15 51
e 15 57
e 15 60
e 15 61
e 15 63
e 15 67
e 15 68
e 15 73
e 15 80
e 15 90
e 15 93
e 15 94
e 16 18
e 16 21
e 16 23
e 16 24
e 16 44
e 16 50
e 16 54
e 16 64
e 16 75
e 16 76
e 16 78
e 16 82
e 16 87
e 16 90
e 16 92
e 16 94
e 17 22
e 17 30
e 17 33
e 17 34
e 17 38
e 17 41
e 17 49
e 17 61
e 17 71
e 17 74
e 17 75
e 17 77
e 17 80
e 17 81
e 17 84
e 17 91
e 17 95
e 17 99
e 17 100
e 18 19
e 18 26
e 18 28
e 18 29
e 18 30
e 18 34
e 18 35
e 18 42
e 18 47
e 18 52
e 18 57
e 18 60
e 18 61
e 18 78
e 18 82
e 18 100
e 19 23
e 19 27
e 19 31
e 19 50
e 19 53
e 19 55
e 19 58
e 19 59
e 19 65
e 19 67
e 19 68
e 19 70
e 19 81
e 19 84
e 19 91
e 19 93
e 19 94
e 19 97
e 19 98
e 20 21
e 20 24
e 20 25
e 20 35
e 20 38
e 20 39
e 20 51
e 20 57
e 20 59
e 20 62
e 20 64
e 20 68
e 20 74
e 20 75
e 20 81
e 20 83
e 20 98
e 21 24
e 21 26
e 21 27
e 21 37
e 21 39
e 21 49
e 21 51
e 21 53
e 21 63
e 21 68
e 21 73
e 21 79
e 21 80
e 21 84
e 21 91
e 21 93
e 22 33
e 22 41
e 22 50
e 22 52
e 22 58
e 22 59
e 22 61
e 22 64
e 22 65
e 22 67
e 22 79
e 22 85
e 22 89
e 22 92
e 22 93
e 22 99
e 22 100
e 23 46
e 23 50
e 23 51
e 23 52
e 23 54
e 23 62
e 23 63
e 23 68
e 23 88
e 23 90
e 23 92
e 23 93
e 23 97
e 24 36
e 24 51
e 24 53
e 24 54
e 24 60
e 24 64
e 24 67
e 24 68
e 24 73
e 24 77
e 24 78
e 24 83
e 24 84
e 24 89
e 24 91
e 24 95
e 24 96
e 25 27
e 25 35
e 25 44
e 25 46
e 25 47
e 25 52
e 25 59
e 25 61
e 25 64
e 25 72
e 25 77
e 25 84
e 25 92
e 25 96
e 26 29
e 26 32
e 26 33
e 26 37
e 26 38
e 26 43
e 26 45
e 26 46
e 26 52
e 26 53
e 26 54
e 26 60
e 26 70
e 26 79
e 26 80
e 26 84
e 26 88
e 27 33
e 27 36
e 27 37
e 27 44
e 27 45
e 27 46
e 27 49
e 27 61
e 27 68
e 27 73
e 27 75
e 27 78
e 27 83
e 27 91
e 27 92
e 27 94
e 27 97
e 27 99
e 28 29
e 28 35
e 28 37
e 28 40
e 28 47
e 28 51
e 28 56
e 28 58
e 28 59
e 28 60
e 28 73
e 28 74
e 28 85
e 28 86
e 28 87
e 28 91
e 28 92
e 28 94
e 28 96
e 28 98
e 29 38
e 29 39
e 29 45
e 29 50
e 29 61
e 29 65
e 29 69
e 29 75
e 29 80
e 29 82
e 29 83
e 29 87
e 29 91
e 29 95
e 29 97
e 29 98
e 30 34
e 30 39
e 30 42
e 30 49
e 30 53
e 30 54
e 30 55
e 30 62
e 30 67
e 30 70
e 30 75
e 30 80
e 30 83
e 30 84
e 30 89
e 30 91
e 30 98
e 31 33
e 31 42
e 31 50
e 31 59
e 31 62
e 31 66
e 31 68
e 31 71
e 31 75
e 31 78
e 31 80
e 31 82
e 31 84
e 31 85
e 31 86
e 31 88
e 31 90
e 31 92
e 32 33
e 32 39
e 32 43
e 32 46
e 32 47
e 32 48
e 32 53
e 32 54
e 32 55
e 32 58
e 32 64
e 32 65
e 32 68
e 32 77
e 32 81
e 32 83
e 32 85
e 32 87
e 32 88
e 32 90
e 32 91
e 32 99
e 33 35
e 33 36
e 33 51
e 33 52
e 33 55
e 33 72
e 33 74
e 33 80
e 33 82
e 33 92
e 34 39
e 34 40
e 34 42
e 34 63
e 34 65
e 34 68
e 34 74
e 34 86
e 34 87
e 34 88
e 34 92
e 34 93
e 35 42
e 35 45
e 35 47
e 35 51
e 35 53
e 35 62
e 35 71
e 35 74
e 35 81
e 35 85
e 35 86
e 35 90
e 35 92
e 35 93
e 36 41
e 36 43
e 36 45
e 36 55
e 36 61
e 36 63
e 36 73
e 36 78
e 36 81
e 36 83
e 36 88
e 36 89
e 36 92
e 36 96
e 36 98
e 37 39
e 37 40
e 37 41
e 37 43
e 37 47
e 37 50
e 37 53
e 37 70
e 37 86
e 37 89
e 37 90
e 37 91
e 37 94
e 37 95
e 38 42
e 38 46
e 38 56
e 38 58
e 38 67
e 38 76
e 38 78
e 38 80
e 38 86
e 38 90
e 38 92
e 38 96
e 38 97
e 38 100
e 39 43
e 39 52
e 39 54
e 39 55
e 39 63
e 39 65
e 39 79
e 39 80
e 39 82
e 39 83
e 39 89
e 39 90
e 39 91
e 39 93
e 39 95
e 39 97
e 40 45
e 40 48
e 40 49
e 40 55
e 40 59
e 40 60
e 40 64
e 40 66
e 40 67
e 40 73
e 40 76
e 40 87
e 40 88
e 40 97
e 41 48
e 41 50
e 41 56
e 41 70
e 41 72
e 41 84
e 41 86
e 41 88
e 41 89
e 41 90
e 41 93
e 41 96
e 41 97
e 42 43
e 42 53
e 42 54
e 42 65
e 42 67
e 42 72
e 42 78
e 42 82
e 42 83
e 42 84
e 42 87
e 42 89
e 42 92
e 42 94
e 42 96
e 42 99
e 43 48
e 43 54
e 43 60
e 43 61
e 43 62
e 43 70
e 43 71
e 43 74
e 43 76
e 43 78
e 43 81
e 43 84
e 43 86
e 43 87
e 43 89
e 43 91
e 43 95
e 43 98
e 43 99
e 44 69
e 44 76
e 44 83
e 44 84
e 44 85
e 44 89
e 44 91
e 44 96
e 44 97
e 44 99
e 44 100
e 45 65
e 45 67
e 45 69
e 45 76
e 45 80
e 45 81
e 45 82
e 45 86
e 45 88
e 45 91
e 45 94
e 45 98
e 45 99
e 46 47
e 46 49
e 46 50
e 46 54
e 46 55
e 46 57
e 46 70
e 46 80
e 46 82
e 46 86
e 46 87
e 46 89
e 46 92
e 47 49
e 47 54
e 47 55
e 47 60
e 47 65
e 47 67
e 47 75
e 47 77
e 47 79
e 47 86
e 47 92
e 47 100
e 48 49
e 48 50
e 48 51
e 48 61
e 48 62
e 48 67
e 48 69
e 48 74
e 48 76
e 48 77
e 48 80
e 48 82
e 48 97
e 48 99
e 48 100
e 49 50
e 49 51
e 49 54
e 49 56
e 49 57
e 49 65
e 49 71
e 49 72
e 49 73
e 49 75
e 49 81
e 49 82
e 50 53
e 50 73
e 50 75
e 50 77
e 50 80
e 50 86
e 50 94
e 50 95
e 50 96
e 50 97
e 51 53
e 51 54
e 51 55
e 51 59
e 51 60
e 51 69
e 51 73
e 51 74
e 51 81
e 51 87
e 51 93
e 51 99
e 52 55
e 52 63
e 52 70
e 52 82
e 52 85
e 52 94
e 52 95
e 52 100
e 53 66
e 53 67
e 53 71
e 53 77
e 53 78
e 53 83
e 53 85
e 53 88
e 53 96
e 54 59
e 54 61
e 54 69
e 54 84
e 54 90
e 54 92
e 54 95
e 55 66
e 55 80
e 55 81
e 55 84
e 55 87
e 55 89
e 55 95
e 55 97
e 55 98
e 56 58
e 56 59
e 56 61
e 56 62
e 56 65
e 56 69
e 56 70
e 56 73
e 56 76
e 56 78
e 56 83
e 56 85
e 56 86
e 56 93
e 56 97
e 56 98
e 57 58
e 57 59
e 57 60
e 57 63
e 57 66
e 57 72
e 57 79
e 57 80
e 57 88
e 57 93
e 57 95
e 57 96
e 58 64
e 58 73
e 58 74
e 58 77
e 58 79
e 58 86
e 58 90
e 58 98
e 58 99
e 59 61
e 59 64
e 59 81
e 59 85
e 59 88
e 59 89
e 60 62
e 60 63
e 60 64
e 60 65
e 60 68
e 60 75
e 60 76
e 60 77
e 60 88
e 60 89
e 60 96
e 60 97
e 60 98
e 60 99
e 61 62
e 61 66
e 61 76
e 61 79
e 61 81
e 61 82
e 61 92
e 61 97
e 62 68
e 62 69
e 62 76
e 62 77
e 62 81
e 62 82
e 62 83
e 62 84
e 62 89
e 62 90
e 62 92
e 62 98
e 63 65
e 63 71
e 63 72
e 63 75
e 63 78
e 63 81
e 63 85
e 63 88
e 63 90
e 63 91
e 63 93
e 63 96
e 63 97
e 64 65
e 64 72
e 64 76
e 64 77
e 64 83
e 64 84
e 64 89
e 64 90
e 64 99
e 65 68
e 65 69
e 65 71
e 65 79
e 65 80
e 65 83
e 65 84
e 65 85
e 65 94
e 65 97
e 66 73
e 66 79
e 66 80
e 66 83
e 66 87
e 66 92
e 66 96
e 66 97
e 66 100
e 67 70
e 67 76
e 67 77
e 67 78
e 67 79
e 67 91
e 68 82
e 68 83
e 68 85
e 68 91
e 68 96
e 69 74
e 69 84
e 69 86
e 69 88
e 69 90
e 69 94
e 69 95
e 69 99
e 70 71
e 70 72
e 70 74
e 70 75
e 70 83
e 70 88
e 70 94
e 70 95
e 70 97
e 71 73
e 71 77
e 71 85
e 71 95
e 72 82
e 72 83
e 72 84
e 72 86
e 72 87
e 72 93
e 72 94
e 72 96
e 73 79
e 73 82
e 73 89
e 73 94
e 73 100
e 74 76
e 74 78
e 74 79
e 74 88
e 74 94
e 74 96
e 75 79
e 75 81
e 75 86
e 75 88
e 75 95
e 75 97
e 75 99
e 76 77
e 76 79
e 76 86
e 76 88
e 76 93
e 76 94
e 76 95
e 76 96
e 76 100
e 77 88
e 77 90
e 77 95
e 77 98
e 78 80
e 78 99
e 78 100
e 79 82
e 79 83
e 79 88
e 79 95
e 79 97
e 80 89
e 80 94
e 80 96
e 80 98
e 81 84
e 81 90
e 81 96
e 81 98
e 81 100
e 82 83
e 82 87
e 82 89
e 82 91
e 83 94
e 83 96
e 84 87
e 84 89
e 84 91
e 84 97
e 85 87
e 85 97
e 85 99
e 86 87
e 86 90
e 86 93
e 86 95
e 86 98
e 86 99
e 87 89
e 87 91
e 87 92
e 87 95
e 87 99
e 88 89
e 88 92
e 88 93
e 89 94
e 91 92
e 91 100
e 92 93
e 92 100
e 93 98
e 94 95
e 95 100
e 96 100
e 98 99
